experiments/knapsack_bounded/knapsack_bounded_10_7.mps
NAME
ROWS
 N  OBJ
 L  c1
 L  c2
 L  c3
 L  c4
 L  c5
 L  c6
 L  c7
 L  c8
 L  c9
 L  c10
 L  c11
COLUMNS
    MARKER    'MARKER'                 'INTORG'
    x[1]      c1        115
    x[1]      c2        1
    x[1]      OBJ       -605
    x[2]      c1        432
    x[2]      c3        1
    x[2]      OBJ       -211
    x[3]      c1        564
    x[3]      c4        1
    x[3]      OBJ       -256
    x[4]      c1        44
    x[4]      c5        1
    x[4]      OBJ       -307
    x[5]      c1        966
    x[5]      c6        1
    x[5]      OBJ       -505
    x[6]      c1        989
    x[6]      c7        1
    x[6]      OBJ       -998
    x[7]      c1        465
    x[7]      c8        1
    x[7]      OBJ       -180
    x[8]      c1        113
    x[8]      c9        1
    x[8]      OBJ       -193
    x[9]      c1        425
    x[9]      c10       1
    x[9]      OBJ       -878
    x[10]     c1        284
    x[10]     c11       1
    x[10]     OBJ       -464
    MARKER    'MARKER'                 'INTEND'
RHS
    rhs       c1        2198
    rhs       c2        7
    rhs       c3        9
    rhs       c4        4
    rhs       c5        8
    rhs       c6        1
    rhs       c7        10
    rhs       c8        4
    rhs       c9        2
    rhs       c10       9
    rhs       c11       2
RANGES
BOUNDS
 LO bounds    x[1]      0
 PL bounds    x[1]
 LO bounds    x[2]      0
 PL bounds    x[2]
 LO bounds    x[3]      0
 PL bounds    x[3]
 LO bounds    x[4]      0
 PL bounds    x[4]
 LO bounds    x[5]      0
 PL bounds    x[5]
 LO bounds    x[6]      0
 PL bounds    x[6]
 LO bounds    x[7]      0
 PL bounds    x[7]
 LO bounds    x[8]      0
 PL bounds    x[8]
 LO bounds    x[9]      0
 PL bounds    x[9]
 LO bounds    x[10]     0
 PL bounds    x[10]
ENDATA
