experiments/knapsack_bounded/knapsack_bounded_10_7.mps.log
Algorithm statistics:
zero_reductions => 5085
max_basis_size => 277
queued_pairs => 0
built_pairs => 6613
reduced_pairs => 5409
eliminated_by_truncation => 57
removed_by_autoreduction => 0
eliminated_by_gcd => 31613
time => 0.008275112
memory => 0.0054725706577301025
4ti2 results
4ti2 time => 0.023289256
